424 5
10 10 10 10 10 

0 0 0 0 0 0 5 2 14 26 38 50 
0 0 0 0 0 0 1 3 
1 0 0 1 0 0 1 4 
2 0 0 2 0 0 1 5 
5 0 0 4 0 0 2 8 6 
10 0 0 3 0 0 2 10 7 
8 0 0 1 0 0 2 11 9 
1 0 0 4 0 0 2 11 9 
3 0 0 3 0 0 1 12 
7 0 0 2 0 0 1 11 
2 0 0 3 0 0 1 13 
2 0 0 2 0 0 1 13 
0 0 0 0 0 0 1 62 
0 0 0 0 0 0 2 15 16 
2 0 1 0 0 0 2 19 17 
2 0 2 0 0 0 2 19 18 
8 0 3 0 0 0 1 18 
2 0 3 0 0 0 2 23 20 
9 0 4 0 0 0 2 23 20 
9 0 2 0 0 0 1 21 
10 0 2 0 0 0 1 22 
3 0 2 0 0 0 1 24 
4 0 2 0 0 0 1 24 
8 0 4 0 0 0 1 25 
0 0 0 0 0 0 1 62 
0 0 0 0 0 0 1 27 
4 0 0 1 0 0 2 29 28 
4 0 0 3 0 0 3 36 34 31 
3 0 0 1 0 0 2 36 30 
8 0 0 3 0 0 1 31 
1 0 0 5 0 0 1 32 
10 0 0 3 0 0 1 33 
7 0 0 3 0 0 1 35 
8 0 0 2 0 0 1 35 
2 0 0 3 0 0 1 37 
7 0 0 1 0 0 1 37 
0 0 0 0 0 0 1 62 
0 0 0 0 0 0 1 39 
8 0 0 0 0 1 1 40 
6 0 0 0 0 2 1 41 
1 0 0 0 0 1 2 43 42 
7 0 0 0 0 1 2 45 44 
1 0 0 0 0 6 2 46 44 
3 0 0 0 0 1 1 47 
2 0 0 0 0 2 1 46 
4 0 0 0 0 3 1 48 
2 0 0 0 0 3 1 48 
3 0 0 0 0 5 1 49 
0 0 0 0 0 0 1 62 
0 0 0 0 0 0 3 51 53 55 
2 0 0 0 0 1 2 59 52 
7 0 0 0 0 2 1 54 
3 0 0 0 0 3 2 59 57 
1 0 0 0 0 3 1 56 
7 0 0 0 0 1 1 56 
4 0 0 0 0 4 1 57 
2 0 0 0 0 3 1 58 
4 0 0 0 0 2 1 60 
2 0 0 0 0 2 1 60 
4 0 0 0 0 4 1 61 
0 0 0 0 0 0 1 62 
0 0 0 0 0 0 5 63 75 87 99 111 
0 0 0 0 0 0 3 64 65 68 
10 0 1 0 0 0 1 66 
7 0 2 0 0 0 1 66 
6 0 2 0 0 0 2 73 67 
6 0 3 0 0 0 1 69 
6 0 3 0 0 0 2 73 71 
8 0 2 0 0 0 1 70 
3 0 4 0 0 0 1 71 
3 0 4 0 0 0 1 72 
5 0 2 0 0 0 1 74 
7 0 2 0 0 0 1 74 
0 0 0 0 0 0 1 123 
0 0 0 0 0 0 3 76 82 85 
4 0 1 0 0 0 1 77 
1 0 3 0 0 0 1 78 
2 0 2 0 0 0 2 81 79 
10 0 6 0 0 0 1 80 
1 0 1 0 0 0 1 83 
3 0 2 0 0 0 1 83 
9 0 3 0 0 0 1 83 
4 0 1 0 0 0 1 84 
5 0 1 0 0 0 1 86 
9 0 5 0 0 0 1 86 
0 0 0 0 0 0 1 123 
0 0 0 0 0 0 2 88 89 
7 0 1 0 0 0 1 90 
9 0 5 0 0 0 1 90 
6 0 2 0 0 0 2 95 91 
10 0 1 0 0 0 1 92 
7 0 3 0 0 0 1 93 
9 0 2 0 0 0 1 94 
10 0 3 0 0 0 2 97 96 
8 0 1 0 0 0 1 96 
8 0 2 0 0 0 1 98 
6 0 5 0 0 0 1 98 
0 0 0 0 0 0 1 123 
0 0 0 0 0 0 2 100 105 
2 0 0 0 0 1 3 109 107 101 
10 0 0 0 0 3 1 102 
4 0 0 0 0 3 1 103 
10 0 0 0 0 1 1 104 
3 0 0 0 0 2 1 106 
5 0 0 0 0 5 1 106 
5 0 0 0 0 3 1 108 
10 0 0 0 0 1 1 108 
8 0 0 0 0 2 1 110 
3 0 0 0 0 4 1 110 
0 0 0 0 0 0 1 123 
0 0 0 0 0 0 1 112 
5 0 0 1 0 0 2 117 113 
7 0 0 3 0 0 2 121 114 
1 0 0 3 0 0 2 120 115 
9 0 0 3 0 0 1 116 
3 0 0 3 0 0 1 118 
6 0 0 3 0 0 1 118 
10 0 0 2 0 0 1 119 
7 0 0 3 0 0 1 122 
4 0 0 2 0 0 1 122 
6 0 0 2 0 0 1 122 
0 0 0 0 0 0 1 123 
0 0 0 0 0 0 5 124 156 168 200 232 
0 0 0 0 0 0 2 125 154 
6 1 1 0 0 1 1 126 
7 1 1 0 0 5 1 127 
8 3 3 0 0 2 1 128 
8 2 3 0 0 4 1 129 
9 5 2 0 0 1 2 153 130 
2 2 3 0 0 3 1 131 
1 2 3 0 0 2 1 132 
8 2 2 0 0 3 5 152 151 148 137 133 
4 4 1 0 0 1 1 134 
1 3 3 0 0 2 2 141 135 
4 2 1 0 0 1 1 136 
4 2 3 0 0 5 1 138 
1 1 1 0 0 3 2 141 140 
10 3 4 0 0 3 1 139 
7 3 3 0 0 2 1 140 
10 4 2 0 0 3 2 150 142 
7 1 4 0 0 3 2 150 142 
6 5 3 0 0 2 1 143 
4 4 1 0 0 1 1 144 
3 4 4 0 0 2 1 145 
5 2 5 0 0 2 1 146 
1 1 4 0 0 1 1 147 
1 1 1 0 0 4 1 149 
2 2 4 0 0 3 1 149 
6 3 3 0 0 4 1 155 
10 5 1 0 0 3 1 155 
3 2 2 0 0 2 1 155 
5 1 3 0 0 2 1 155 
1 2 3 0 0 2 1 155 
4 2 1 0 0 3 1 155 
0 0 0 0 0 0 1 424 
0 0 0 0 0 0 1 157 
2 0 1 0 0 0 2 159 158 
6 0 1 0 0 0 1 160 
5 0 4 0 0 0 1 160 
3 0 2 0 0 0 3 165 162 161 
9 0 4 0 0 0 1 163 
3 0 2 0 0 0 1 163 
8 0 2 0 0 0 1 164 
7 0 3 0 0 0 1 166 
7 0 3 0 0 0 1 166 
6 0 3 0 0 0 1 167 
0 0 0 0 0 0 5 264 286 298 320 342 
0 0 0 0 0 0 7 169 193 194 195 196 197 198 
4 1 1 0 0 1 2 192 170 
5 4 4 0 0 1 1 171 
9 4 2 0 0 3 1 172 
6 1 1 0 0 2 1 173 
6 2 2 0 0 4 1 174 
6 2 1 0 0 4 1 175 
7 3 4 0 0 3 1 176 
10 2 5 0 0 2 2 191 177 
10 3 2 0 0 2 1 178 
1 4 3 0 0 2 1 179 
5 3 1 0 0 5 1 180 
10 3 2 0 0 2 1 181 
1 5 5 0 0 2 1 182 
4 1 4 0 0 2 1 183 
7 3 5 0 0 3 1 184 
6 1 3 0 0 3 1 185 
5 1 4 0 0 3 1 186 
2 2 2 0 0 1 1 187 
8 2 3 0 0 5 1 188 
10 4 2 0 0 2 1 189 
7 2 2 0 0 2 1 190 
6 1 3 0 0 2 1 199 
5 2 2 0 0 2 1 199 
10 4 1 0 0 2 1 199 
10 4 4 0 0 1 1 199 
5 3 1 0 0 1 1 199 
10 2 1 0 0 4 1 199 
8 3 2 0 0 3 1 199 
3 1 2 0 0 4 1 199 
4 2 1 0 0 2 1 199 
0 0 0 0 0 0 1 424 
0 0 0 0 0 0 2 201 230 
5 0 0 1 1 1 1 202 
6 0 0 4 2 2 1 203 
1 0 0 1 4 5 1 204 
6 0 0 2 2 4 1 205 
5 0 0 5 1 1 2 229 206 
7 0 0 5 4 2 1 207 
6 0 0 3 3 1 1 208 
6 0 0 2 3 3 5 228 222 214 213 209 
2 0 0 2 1 3 1 210 
4 0 0 2 2 1 2 216 211 
9 0 0 2 4 4 1 212 
2 0 0 2 2 1 1 215 
8 0 0 5 2 3 1 216 
5 0 0 1 5 3 1 215 
3 0 0 4 4 2 1 217 
8 0 0 1 3 3 1 217 
5 0 0 1 3 1 1 218 
1 0 0 3 3 3 2 227 219 
1 0 0 2 1 4 1 220 
2 0 0 2 1 4 1 221 
5 0 0 2 3 3 1 223 
8 0 0 2 2 3 1 223 
10 0 0 4 2 1 1 224 
4 0 0 4 4 2 1 225 
7 0 0 2 1 4 1 226 
7 0 0 1 3 3 1 231 
6 0 0 4 3 2 1 231 
10 0 0 1 2 4 1 231 
8 0 0 1 2 1 1 231 
6 0 0 4 2 1 1 231 
0 0 0 0 0 0 1 424 
0 0 0 0 0 0 2 233 238 
9 0 1 1 1 0 1 234 
1 0 4 3 2 0 1 235 
6 0 2 4 2 0 2 237 236 
6 0 3 1 4 0 1 239 
4 0 3 2 4 0 1 239 
7 0 4 3 4 0 1 239 
8 0 2 3 1 0 2 243 240 
8 0 1 2 1 0 2 246 241 
10 0 2 3 2 0 1 242 
2 0 4 3 2 0 2 253 244 
4 0 2 2 4 0 2 246 244 
3 0 2 5 1 0 1 245 
9 0 2 1 4 0 2 251 247 
9 0 2 1 3 0 2 251 247 
8 0 2 4 1 0 1 248 
6 0 6 2 3 0 3 261 257 249 
3 0 1 3 5 0 1 250 
3 0 4 1 5 0 1 252 
9 0 2 1 2 0 1 252 
1 0 1 2 3 0 1 254 
9 0 2 1 3 0 2 261 257 
5 0 4 3 3 0 1 255 
3 0 2 2 1 0 1 256 
8 0 2 3 4 0 1 258 
3 0 1 3 1 0 1 258 
6 0 3 4 2 0 1 259 
3 0 2 2 2 0 1 260 
7 0 3 3 3 0 1 262 
2 0 3 5 1 0 1 262 
1 0 3 2 1 0 1 263 
0 0 0 0 0 0 1 424 
0 0 0 0 0 0 1 265 
1 0 1 0 0 1 2 274 266 
3 0 4 0 0 1 1 267 
10 0 1 0 0 2 2 276 268 
5 0 1 0 0 5 1 269 
3 0 3 0 0 2 2 277 270 
2 0 5 0 0 3 1 271 
8 0 3 0 0 2 1 272 
1 0 2 0 0 2 2 284 273 
9 0 5 0 0 2 1 275 
8 0 4 0 0 3 1 275 
7 0 3 0 0 1 2 282 278 
7 0 2 0 0 3 1 277 
5 0 1 0 0 2 2 284 280 
1 0 1 0 0 2 1 279 
8 0 3 0 0 2 1 280 
3 0 3 0 0 3 1 281 
2 0 3 0 0 3 1 283 
7 0 2 0 0 3 1 283 
3 0 2 0 0 2 1 285 
9 0 1 0 0 6 1 285 
0 0 0 0 0 0 1 424 
0 0 0 0 0 0 2 287 291 
1 1 0 0 0 0 2 290 288 
5 2 0 0 0 0 1 289 
10 4 0 0 0 0 1 292 
1 1 0 0 0 0 1 292 
1 3 0 0 0 0 1 292 
2 3 0 0 0 0 2 296 293 
10 1 0 0 0 0 1 294 
9 3 0 0 0 0 1 295 
5 3 0 0 0 0 1 297 
5 4 0 0 0 0 1 297 
0 0 0 0 0 0 5 364 376 388 400 412 
0 0 0 0 0 0 3 299 303 306 
5 0 1 0 0 1 1 300 
2 0 4 0 0 1 1 301 
3 0 1 0 0 1 1 302 
7 0 2 0 0 2 1 304 
5 0 3 0 0 3 3 311 309 307 
3 0 3 0 0 2 2 311 305 
8 0 6 0 0 4 1 307 
5 0 2 0 0 6 1 307 
5 0 3 0 0 2 1 308 
9 0 3 0 0 4 1 310 
1 0 3 0 0 1 1 310 
2 0 1 0 0 2 2 318 312 
3 0 3 0 0 2 1 312 
5 0 2 0 0 3 1 313 
2 0 2 0 0 2 1 314 
1 0 3 0 0 2 1 315 
8 0 2 0 0 3 1 316 
3 0 2 0 0 2 1 317 
2 0 3 0 0 5 1 319 
5 0 1 0 0 2 1 319 
0 0 0 0 0 0 1 424 
0 0 0 0 0 0 2 321 324 
8 0 0 1 0 1 1 322 
2 0 0 4 0 2 2 327 323 
7 0 0 3 0 3 2 329 325 
2 0 0 1 0 1 2 329 325 
8 0 0 4 0 3 1 326 
9 0 0 1 0 2 2 332 328 
3 0 0 2 0 2 1 329 
2 0 0 3 0 2 1 330 
3 0 0 1 0 1 1 330 
6 0 0 4 0 4 1 331 
6 0 0 3 0 3 1 333 
2 0 0 2 0 1 1 333 
8 0 0 1 0 2 1 334 
9 0 0 4 0 4 1 335 
8 0 0 3 0 2 1 336 
3 0 0 3 0 3 2 340 337 
10 0 0 1 0 2 1 338 
8 0 0 3 0 5 1 339 
3 0 0 4 0 3 1 341 
1 0 0 2 0 4 1 341 
0 0 0 0 0 0 1 424 
0 0 0 0 0 0 2 343 350 
1 1 0 0 0 1 1 344 
9 1 0 0 0 2 2 354 345 
6 2 0 0 0 3 2 362 346 
9 2 0 0 0 2 1 347 
8 1 0 0 0 3 2 361 348 
4 3 0 0 0 1 1 349 
9 1 0 0 0 5 2 356 351 
3 3 0 0 0 2 2 362 351 
3 5 0 0 0 2 1 352 
2 2 0 0 0 2 1 353 
9 5 0 0 0 2 1 355 
3 2 0 0 0 4 1 355 
9 3 0 0 0 1 1 357 
5 3 0 0 0 2 1 357 
4 3 0 0 0 3 1 358 
9 1 0 0 0 3 1 359 
3 3 0 0 0 2 1 360 
4 2 0 0 0 5 1 363 
8 2 0 0 0 2 1 363 
6 5 0 0 0 3 1 363 
0 0 0 0 0 0 1 424 
0 0 0 0 0 0 2 365 370 
6 1 0 0 0 0 1 366 
4 3 0 0 0 0 3 374 373 367 
10 2 0 0 0 0 1 368 
8 1 0 0 0 0 1 369 
5 2 0 0 0 0 1 371 
2 3 0 0 0 0 1 371 
4 6 0 0 0 0 1 372 
1 2 0 0 0 0 1 375 
10 3 0 0 0 0 1 375 
9 2 0 0 0 0 1 375 
0 0 0 0 0 0 1 424 
0 0 0 0 0 0 2 377 378 
10 0 1 0 0 0 2 386 379 
7 0 3 0 0 0 3 386 382 381 
5 0 2 0 0 0 1 380 
8 0 1 0 0 0 1 381 
8 0 1 0 0 0 1 383 
5 0 3 0 0 0 1 383 
8 0 2 0 0 0 1 384 
6 0 4 0 0 0 1 385 
6 0 5 0 0 0 1 387 
1 0 3 0 0 0 1 387 
0 0 0 0 0 0 1 424 
0 0 0 0 0 0 1 389 
3 1 0 0 0 0 2 391 390 
6 2 0 0 0 0 1 392 
2 5 0 0 0 0 1 392 
3 3 0 0 0 0 2 394 393 
4 3 0 0 0 0 1 395 
4 1 0 0 0 0 1 395 
5 2 0 0 0 0 2 397 396 
8 3 0 0 0 0 1 398 
5 1 0 0 0 0 1 398 
1 4 0 0 0 0 1 399 
0 0 0 0 0 0 1 424 
0 0 0 0 0 0 2 401 405 
6 0 0 0 0 1 3 409 407 402 
8 0 0 0 0 2 1 403 
7 0 0 0 0 3 1 404 
10 0 0 0 0 2 1 406 
8 0 0 0 0 5 1 406 
7 0 0 0 0 1 1 408 
10 0 0 0 0 4 1 408 
6 0 0 0 0 4 1 410 
9 0 0 0 0 1 1 410 
3 0 0 0 0 2 1 411 
0 0 0 0 0 0 1 424 
0 0 0 0 0 0 3 413 416 422 
2 0 0 0 1 0 1 414 
10 0 0 0 2 0 1 415 
3 0 0 0 2 0 2 421 417 
6 0 0 0 4 0 2 421 417 
8 0 0 0 4 0 1 418 
2 0 0 0 2 0 1 419 
5 0 0 0 1 0 1 420 
6 0 0 0 2 0 1 423 
1 0 0 0 2 0 1 423 
5 0 0 0 5 0 1 423 
0 0 0 0 0 0 1 424 
0 0 0 0 0 0 0 
